n = 8;
Min = 1;
Max = 3;
D = [|
0,125,174,233,209,110,64,204|
125,0,134,175,203,132,61,109|
174,134,0,60,74,77,137,79|
233,175,60,0,88,135,191,81|
209,203,74,88,0,99,191,149|
110,132,77,135,99,0,100,140|
64,61,137,191,191,100,0,147|
204,109,79,81,149,140,147,0|];